NAME: archipelago120_DFJ
TYPE: TOUR
DIMENSION: 120
TOUR_SECTION
1
13
9
2
7
19
11
12
14
6
18
10
3
8
16
5
20
4
15
17
81
89
90
85
88
83
93
80
82
79
76
77
98
86
92
94
96
91
84
97
95
78
87
50
37
56
40
52
54
41
51
39
45
42
36
47
44
55
43
38
49
53
48
57
46
120
100
99
116
119
118
110
102
106
115
104
113
105
112
108
101
117
109
103
111
114
107
58
71
59
69
66
61
65
68
60
63
70
74
62
64
72
75
73
67
26
30
24
29
34
22
23
27
25
21
35
31
28
33
32
-1
EOF
